50
    1    49    45
    2    46    43
    3    29    17
    4    15    50
    5    23    41
    6     2    41
    7    49    20
    8     1    31
    9    46    46
   10     4     9
   11     4     7
   12    20    50
   13     8    43
   14    27    11
   15    48     6
   16    17     4
   17    11    10
   18    15    25
   19    20     8
   20    29     7
   21    41    14
   22     4    13
   23     1     1
   24    43    46
   25    46    50
   26    44    21
   27    23    45
   28    21    17
   29    13    39
   30    44     4
   31    36    45
   32     5    41
   33     5    25
   34    12    14
   35    41    45
   36    20    12
   37    50    49
   38    50    18
   39    14    37
   40    47    26
   41    13    16
   42    45    23
   43    39    47
   44    48     9
   45     4    16
   46    18    44
   47     8    45
   48    34    29
   49    28    16
   50    27     7
885
